(set-logic QF_S)
(declare-fun var0 () String)
(declare-fun var1 () Int)
(declare-fun var2 () String)
(declare-fun var3 () Int)
(declare-fun var4 () String)
(declare-fun var5 () Int)
(declare-fun var6 () Int)
(declare-fun var7 () String)
(assert (< (str.len (str.at var0 var1)) (str.indexof (str.at var2 var3) (str.substr var4 var5 var6) (str.len var7))))
(assert (< (str.len var0) (str.len var7)))
(assert (<= (str.len (str.replace "T81bX!>]" var2 var7)) (str.to.int (str.substr var0 var6 var3))))
(assert (str.contains (str.at var2 var3) (str.substr var4 var5 var3)))
(check-sat)